(set-logic QF_S)
(declare-fun _var_0xINPUT_102028_() String)
(declare-fun __woorpje_diseq_pref0_() String)
(declare-fun __woorpje_diseq_suf_l0_() String)
(declare-fun __woorpje_diseq_suf_r0_() String)
(assert (=(str.++  "PC9MsA8DGb" "")(str.++ __woorpje_diseq_pref0_  "A" __woorpje_diseq_suf_l0_  "")) )
(assert (=(str.++ _var_0xINPUT_102028_  "")(str.++ __woorpje_diseq_pref0_  "b" __woorpje_diseq_suf_r0_  "")) )
(check-sat)
